words_hard_train/364.qaiger
aag 54 14 0 1 40
2
4
8
12
22
24
28
32
34
42
54
66
70
78
109
6 3 5
10 7 8
14 10 12
16 6 9
18 16 13
20 15 19
26 22 24
30 26 28
36 32 34
38 30 37
40 33 35
44 41 42
46 38 44
48 43 23
50 48 25
52 50 29
56 40 55
58 57 37
60 52 59
62 47 61
64 21 63
68 54 66
72 43 71
74 27 29
76 73 75
80 31 79
82 76 81
84 82 41
86 44 70
88 87 37
90 85 88
92 69 90
94 2 4
96 7 95
98 93 97
100 64 99
102 69 96
104 91 54
106 102 105
108 100 107
i0 1 x1[2]
i1 2 y1[5]
i2 1 x1[1]
i3 1 x1[0]
i4 1 x1[7]
i5 2 y1[0]
i6 1 x1[6]
i7 1 x1[4]
i8 2 y1[3]
i9 1 x1[5]
i10 1 x1[3]
i11 2 y1[4]
i12 2 y1[2]
i13 2 y1[1]
o0 bool[0]
c
simplified
  !=
    and
      2 y1
      214
    add
      reverse
        1 x1
      2 y1
