words_hard_train/364.qaiger.qdimacs
p cnf 54 121
a 1 4 6 11 14 16 21 27 0
e 2 3 5 7 8 9 10 12 13 15 17 18 19 20 22 23 24 25 26 28 29 30 31 32 33 34 35 36 37 38 39 40 41 42 43 44 45 46 47 48 49 50 51 52 53 54 0
1 2 3 0
-1 -3 0
-2 -3 0
3 -4 5 0
-3 -5 0
4 -5 0
-5 -6 7 0
5 -7 0
6 -7 0
-3 4 8 0
3 -8 0
-4 -8 0
-8 6 9 0
8 -9 0
-6 -9 0
7 9 10 0
-7 -10 0
-9 -10 0
-11 -12 13 0
11 -13 0
12 -13 0
-13 -14 15 0
13 -15 0
14 -15 0
-16 -17 18 0
16 -18 0
17 -18 0
-15 18 19 0
15 -19 0
-18 -19 0
16 17 20 0
-16 -20 0
-17 -20 0
20 -21 22 0
-20 -22 0
21 -22 0
-19 -22 23 0
19 -23 0
22 -23 0
21 11 24 0
-21 -24 0
-11 -24 0
-24 12 25 0
24 -25 0
-12 -25 0
-25 14 26 0
25 -26 0
-14 -26 0
-20 27 28 0
20 -28 0
-27 -28 0
28 18 29 0
-28 -29 0
-18 -29 0
-26 29 30 0
26 -30 0
-29 -30 0
23 30 31 0
-23 -31 0
-30 -31 0
10 31 32 0
-10 -32 0
-31 -32 0
-27 -33 34 0
27 -34 0
33 -34 0
21 35 36 0
-21 -36 0
-35 -36 0
13 14 37 0
-13 -37 0
-14 -37 0
36 37 38 0
-36 -38 0
-37 -38 0
15 39 40 0
-15 -40 0
-39 -40 0
-38 40 41 0
38 -41 0
-40 -41 0
-41 20 42 0
41 -42 0
-20 -42 0
-22 -35 43 0
22 -43 0
35 -43 0
43 18 44 0
-43 -44 0
-18 -44 0
42 -44 45 0
-42 -45 0
44 -45 0
34 -45 46 0
-34 -46 0
45 -46 0
-1 -2 47 0
1 -47 0
2 -47 0
3 47 48 0
-3 -48 0
-47 -48 0
46 48 49 0
-46 -49 0
-48 -49 0
-32 49 50 0
32 -50 0
-49 -50 0
34 -48 51 0
-34 -51 0
48 -51 0
45 -27 52 0
-45 -52 0
27 -52 0
-51 52 53 0
51 -53 0
-52 -53 0
-50 53 54 0
50 -54 0
-53 -54 0
-54 0
